c File: flat50_3_0.col
c
c SOURCE: Joseph Culberson (joe@cs.ualberta.ca)
c DESCRIPTION: Quasi-random coloring problem
c              generated with flatness = 0
c                             probability = 0.139
c                             known coloring = 3
c                             random seed = 1891
c              Creation Date:  Tue Jun  9 12:20:27 1998
c Maximum degree = 7 Minimum degree = 0
c p edge 50 115
c cnf created by edge2cnf
p cnf 150 545
-1 -2 0
-1 -3 0
-2 -3 0
1 2 3 0
-4 -5 0
-4 -6 0
-5 -6 0
4 5 6 0
-7 -8 0
-7 -9 0
-8 -9 0
7 8 9 0
-10 -11 0
-10 -12 0
-11 -12 0
10 11 12 0
-13 -14 0
-13 -15 0
-14 -15 0
13 14 15 0
-16 -17 0
-16 -18 0
-17 -18 0
16 17 18 0
-19 -20 0
-19 -21 0
-20 -21 0
19 20 21 0
-22 -23 0
-22 -24 0
-23 -24 0
22 23 24 0
-25 -26 0
-25 -27 0
-26 -27 0
25 26 27 0
-28 -29 0
-28 -30 0
-29 -30 0
28 29 30 0
-31 -32 0
-31 -33 0
-32 -33 0
31 32 33 0
-34 -35 0
-34 -36 0
-35 -36 0
34 35 36 0
-37 -38 0
-37 -39 0
-38 -39 0
37 38 39 0
-40 -41 0
-40 -42 0
-41 -42 0
40 41 42 0
-43 -44 0
-43 -45 0
-44 -45 0
43 44 45 0
-46 -47 0
-46 -48 0
-47 -48 0
46 47 48 0
-49 -50 0
-49 -51 0
-50 -51 0
49 50 51 0
-52 -53 0
-52 -54 0
-53 -54 0
52 53 54 0
-55 -56 0
-55 -57 0
-56 -57 0
55 56 57 0
-58 -59 0
-58 -60 0
-59 -60 0
58 59 60 0
-61 -62 0
-61 -63 0
-62 -63 0
61 62 63 0
-64 -65 0
-64 -66 0
-65 -66 0
64 65 66 0
-67 -68 0
-67 -69 0
-68 -69 0
67 68 69 0
-70 -71 0
-70 -72 0
-71 -72 0
70 71 72 0
-73 -74 0
-73 -75 0
-74 -75 0
73 74 75 0
-76 -77 0
-76 -78 0
-77 -78 0
76 77 78 0
-79 -80 0
-79 -81 0
-80 -81 0
79 80 81 0
-82 -83 0
-82 -84 0
-83 -84 0
82 83 84 0
-85 -86 0
-85 -87 0
-86 -87 0
85 86 87 0
-88 -89 0
-88 -90 0
-89 -90 0
88 89 90 0
-91 -92 0
-91 -93 0
-92 -93 0
91 92 93 0
-94 -95 0
-94 -96 0
-95 -96 0
94 95 96 0
-97 -98 0
-97 -99 0
-98 -99 0
97 98 99 0
-100 -101 0
-100 -102 0
-101 -102 0
100 101 102 0
-103 -104 0
-103 -105 0
-104 -105 0
103 104 105 0
-106 -107 0
-106 -108 0
-107 -108 0
106 107 108 0
-109 -110 0
-109 -111 0
-110 -111 0
109 110 111 0
-112 -113 0
-112 -114 0
-113 -114 0
112 113 114 0
-115 -116 0
-115 -117 0
-116 -117 0
115 116 117 0
-118 -119 0
-118 -120 0
-119 -120 0
118 119 120 0
-121 -122 0
-121 -123 0
-122 -123 0
121 122 123 0
-124 -125 0
-124 -126 0
-125 -126 0
124 125 126 0
-127 -128 0
-127 -129 0
-128 -129 0
127 128 129 0
-130 -131 0
-130 -132 0
-131 -132 0
130 131 132 0
-133 -134 0
-133 -135 0
-134 -135 0
133 134 135 0
-136 -137 0
-136 -138 0
-137 -138 0
136 137 138 0
-139 -140 0
-139 -141 0
-140 -141 0
139 140 141 0
-142 -143 0
-142 -144 0
-143 -144 0
142 143 144 0
-145 -146 0
-145 -147 0
-146 -147 0
145 146 147 0
-148 -149 0
-148 -150 0
-149 -150 0
148 149 150 0
-67 -1 0
-68 -2 0
-69 -3 0
-127 -1 0
-128 -2 0
-129 -3 0
-70 -4 0
-71 -5 0
-72 -6 0
-130 -4 0
-131 -5 0
-132 -6 0
-142 -4 0
-143 -5 0
-144 -6 0
-145 -4 0
-146 -5 0
-147 -6 0
-58 -7 0
-59 -8 0
-60 -9 0
-115 -7 0
-116 -8 0
-117 -9 0
-136 -7 0
-137 -8 0
-138 -9 0
-139 -7 0
-140 -8 0
-141 -9 0
-67 -10 0
-68 -11 0
-69 -12 0
-88 -10 0
-89 -11 0
-90 -12 0
-91 -10 0
-92 -11 0
-93 -12 0
-103 -13 0
-104 -14 0
-105 -15 0
-145 -13 0
-146 -14 0
-147 -15 0
-64 -16 0
-65 -17 0
-66 -18 0
-88 -16 0
-89 -17 0
-90 -18 0
-94 -16 0
-95 -17 0
-96 -18 0
-97 -16 0
-98 -17 0
-99 -18 0
-121 -16 0
-122 -17 0
-123 -18 0
-55 -19 0
-56 -20 0
-57 -21 0
-67 -19 0
-68 -20 0
-69 -21 0
-76 -19 0
-77 -20 0
-78 -21 0
-82 -19 0
-83 -20 0
-84 -21 0
-118 -19 0
-119 -20 0
-120 -21 0
-148 -19 0
-149 -20 0
-150 -21 0
-55 -22 0
-56 -23 0
-57 -24 0
-79 -22 0
-80 -23 0
-81 -24 0
-85 -22 0
-86 -23 0
-87 -24 0
-106 -22 0
-107 -23 0
-108 -24 0
-127 -22 0
-128 -23 0
-129 -24 0
-133 -22 0
-134 -23 0
-135 -24 0
-142 -22 0
-143 -23 0
-144 -24 0
-91 -25 0
-92 -26 0
-93 -27 0
-109 -25 0
-110 -26 0
-111 -27 0
-136 -25 0
-137 -26 0
-138 -27 0
-58 -28 0
-59 -29 0
-60 -30 0
-76 -28 0
-77 -29 0
-78 -30 0
-100 -28 0
-101 -29 0
-102 -30 0
-112 -28 0
-113 -29 0
-114 -30 0
-130 -28 0
-131 -29 0
-132 -30 0
-148 -28 0
-149 -29 0
-150 -30 0
-52 -31 0
-53 -32 0
-54 -33 0
-145 -31 0
-146 -32 0
-147 -33 0
-148 -31 0
-149 -32 0
-150 -33 0
-55 -34 0
-56 -35 0
-57 -36 0
-58 -34 0
-59 -35 0
-60 -36 0
-73 -34 0
-74 -35 0
-75 -36 0
-106 -34 0
-107 -35 0
-108 -36 0
-115 -34 0
-116 -35 0
-117 -36 0
-121 -34 0
-122 -35 0
-123 -36 0
-139 -34 0
-140 -35 0
-141 -36 0
-70 -37 0
-71 -38 0
-72 -39 0
-73 -37 0
-74 -38 0
-75 -39 0
-91 -37 0
-92 -38 0
-93 -39 0
-127 -37 0
-128 -38 0
-129 -39 0
-52 -40 0
-53 -41 0
-54 -42 0
-73 -40 0
-74 -41 0
-75 -42 0
-85 -40 0
-86 -41 0
-87 -42 0
-103 -40 0
-104 -41 0
-105 -42 0
-145 -40 0
-146 -41 0
-147 -42 0
-148 -40 0
-149 -41 0
-150 -42 0
-73 -43 0
-74 -44 0
-75 -45 0
-85 -43 0
-86 -44 0
-87 -45 0
-91 -43 0
-92 -44 0
-93 -45 0
-127 -43 0
-128 -44 0
-129 -45 0
-142 -43 0
-143 -44 0
-144 -45 0
-58 -46 0
-59 -47 0
-60 -48 0
-76 -46 0
-77 -47 0
-78 -48 0
-88 -46 0
-89 -47 0
-90 -48 0
-94 -46 0
-95 -47 0
-96 -48 0
-115 -46 0
-116 -47 0
-117 -48 0
-118 -46 0
-119 -47 0
-120 -48 0
-124 -46 0
-125 -47 0
-126 -48 0
-79 -49 0
-80 -50 0
-81 -51 0
-100 -49 0
-101 -50 0
-102 -51 0
-124 -49 0
-125 -50 0
-126 -51 0
-136 -49 0
-137 -50 0
-138 -51 0
-106 -52 0
-107 -53 0
-108 -54 0
-133 -55 0
-134 -56 0
-135 -57 0
-127 -58 0
-128 -59 0
-129 -60 0
-133 -58 0
-134 -59 0
-135 -60 0
-118 -64 0
-119 -65 0
-120 -66 0
-121 -64 0
-122 -65 0
-123 -66 0
-124 -64 0
-125 -65 0
-126 -66 0
-148 -64 0
-149 -65 0
-150 -66 0
-106 -67 0
-107 -68 0
-108 -69 0
-121 -67 0
-122 -68 0
-123 -69 0
-124 -67 0
-125 -68 0
-126 -69 0
-142 -67 0
-143 -68 0
-144 -69 0
-103 -70 0
-104 -71 0
-105 -72 0
-121 -70 0
-122 -71 0
-123 -72 0
-148 -70 0
-149 -71 0
-150 -72 0
-115 -73 0
-116 -74 0
-117 -75 0
-145 -73 0
-146 -74 0
-147 -75 0
-112 -76 0
-113 -77 0
-114 -78 0
-115 -76 0
-116 -77 0
-117 -78 0
-136 -79 0
-137 -80 0
-138 -81 0
-148 -79 0
-149 -80 0
-150 -81 0
-115 -82 0
-116 -83 0
-117 -84 0
-136 -82 0
-137 -83 0
-138 -84 0
-103 -85 0
-104 -86 0
-105 -87 0
-133 -85 0
-134 -86 0
-135 -87 0
-145 -85 0
-146 -86 0
-147 -87 0
-103 -88 0
-104 -89 0
-105 -90 0
-115 -88 0
-116 -89 0
-117 -90 0
-121 -88 0
-122 -89 0
-123 -90 0
-130 -88 0
-131 -89 0
-132 -90 0
-127 -91 0
-128 -92 0
-129 -93 0
-112 -94 0
-113 -95 0
-114 -96 0
-139 -97 0
-140 -98 0
-141 -99 0
-142 -97 0
-143 -98 0
-144 -99 0
-106 -100 0
-107 -101 0
-108 -102 0
-124 -100 0
-125 -101 0
-126 -102 0
-142 -100 0
-143 -101 0
-144 -102 0
